
Gurobi 12.0.2 (win64) logging started Mon Sep 15 14:21:11 2025

Set parameter LogFile to value "C:\Ioana\_uni\honours\slp\algorithm\Main_files\results\paracetamol with updated samples\Task_006_Sample006_irr_gurobi.log"
Gurobi Optimizer version 12.0.2 build v12.0.2rc0 (win64 - Windows 11.0 (26100.2))

CPU model: Intel(R) Core(TM) Ultra 5 125H, instruction set [SSE2|AVX|AVX2]
Thread count: 14 physical cores, 18 logical processors, using up to 18 threads

Non-default parameters:
TimeLimit  2200

Optimize a model with 47236 rows, 34517 columns and 146727 nonzeros
Model fingerprint: 0xcbc2c0be
Variable types: 17268 continuous, 17249 integer (17249 binary)
Coefficient statistics:
  Matrix range     [1e-04, 8e+04]
  Objective range  [1e-04, 9e-01]
  Bounds range     [1e+00, 1e+03]
  RHS range        [1e+00, 1e+00]
Presolve removed 30814 rows and 21539 columns
Presolve time: 0.35s
Presolved: 16422 rows, 12978 columns, 54736 nonzeros
Variable types: 6426 continuous, 6552 integer (6552 binary)
Found heuristic solution: objective 11.8103059

Root relaxation: objective 9.207996e-01, 3694 iterations, 0.28 seconds (0.68 work units)

    Nodes    |    Current Node    |     Objective Bounds      |     Work
 Expl Unexpl |  Obj  Depth IntInf | Incumbent    BestBd   Gap | It/Node Time

     0     0    0.92080    0    2   11.81031    0.92080  92.2%     -    0s
H    0     0                       1.8003710    0.92080  48.9%     -    0s
H    0     0                       0.9517570    0.92080  3.25%     -    0s
     0     0    0.92080    0    2    0.95176    0.92080  3.25%     -    0s

Explored 1 nodes (3694 simplex iterations) in 0.75 seconds (1.15 work units)
Thread count was 18 (of 18 available processors)

Solution count 3: 0.951757 1.80037 11.8103 

Optimal solution found (tolerance 1.00e-04)
Best objective 9.517569737860e-01, best bound 9.517569737860e-01, gap 0.0000%
